32      4       
13      12      16      17      
0       0       0       0       0       7       2       3       4       5       6       7       13      
10      6       0       9       0       5       8       9       10      12      15      
4       3       3       0       0       5       9       10      11      14      15      
9       5       8       0       0       3       9       10      14      
9       0       0       5       6       4       10      16      17      18      
9       1       0       1       0       3       9       10      21      
4       13      0       0       1       2       9       10      
8       0       6       0       11      5       14      20      22      24      30      
2       4       0       0       17      4       16      17      19      29      
2       0       0       16      5       7       19      20      22      24      26      28      30      
6       10      0       0       4       6       18      19      24      29      30      31      
5       4       0       0       12      4       17      20      26      31      
1       0       12      0       6       4       16      20      22      24      
8       0       8       0       11      5       18      19      28      29      31      
9       0       6       11      0       5       21      22      27      28      30      
10      0       8       1       0       5       23      26      27      28      31      
5       0       6       0       13      4       22      24      28      30      
4       0       7       2       0       3       21      23      27      
9       9       0       16      0       2       23      27      
2       0       6       6       0       2       23      29      
3       13      0       0       6       2       25      26      
7       5       1       0       0       1       23      
5       0       4       1       0       1       25      
10      0       0       3       11      1       25      
4       0       0       9       15      1       32      
4       6       0       0       5       1       32      
6       6       0       16      0       1       32      
3       0       0       16      5       1       32      
7       8       4       0       0       1       32      
5       5       3       0       0       1       32      
8       0       8       8       0       1       32      
0       0       0       0       0       0       
